4
Lattice="10 0 0 0 10 0 0 0 10" Properties=species:S:1:pos:R:3:forces:R:3 pbc="T T T" step=0 time=0 time_unit=fs force_unit=eV/angstrom
C  4.80  0.00  0.00   0.10  0.00  0.00
O -4.80  0.00  0.00  -0.10  0.00  0.00
H  0.00  1.00  0.00   0.00  0.05  0.00
H  0.00 -1.00  0.00   0.00 -0.05  0.00
4
Lattice="10 0 0 0 10 0 0 0 10" Properties=species:S:1:pos:R:3:forces:R:3 pbc="T T T" step=10 time=0.5 time_unit=fs force_unit=eV/angstrom
C  4.70  0.05  0.00   0.08  0.01  0.00
O -4.70 -0.05  0.00  -0.08 -0.01  0.00
H  0.05  1.05  0.00   0.00  0.04  0.00
H -0.05 -1.05  0.00   0.00 -0.04  0.00
