60

C       2.210195295000000      0.586663110000000      2.666950395000000
C       3.107639295000000      0.157700810000000      1.630028595000000
C       1.328442995000000     -0.315893890000000      3.236323195000000
C       3.090870895000000     -1.158500490000000      1.201423995000000
C       3.187924495000000     -1.457459890000000     -0.199700505000000
C       3.221462295000000      1.223096610000000      0.673943995000000
C       3.316120995000000      0.935158610000000     -0.676515105000000
C       3.298498095000000     -0.430114190000000     -1.120413805000000
C      -0.448084205000000      1.359148410000000      3.208101995000000
C       0.467205595000000      2.294983010000000      2.617526395000000
C      -0.025657505000000      0.076421910000000      3.508625895000000
C       1.772791695000000      1.917658410000000      2.352969095000000
C       2.395462295000000      2.309568910000000      1.118953895000000
C      -0.261019505000000      3.082093510000000      1.662311695000000
C       0.340772595000000      3.459238810000000      0.474596795000000
C       1.695117095000000      3.069244610000000      0.197662295000000
C      -2.125839405000000     -0.845885290000000      2.670096295000000
C      -2.562099005000000      0.485520210000000      2.353171495000000
C      -0.878152105000000     -1.046198490000000      3.236730195000000
C      -1.741509605000000      1.567996310000000      2.619733295000000
C      -1.626246805000000      2.635703010000000      1.664181095000000
C      -3.298481005000000      0.430187110000000      1.120420795000000
C      -3.187946905000000      1.457389510000000      0.199602995000000
C      -2.336026105000000      2.581362710000000      0.476091195000000
C      -0.500521005000000     -2.979777090000000      1.794030795000000
C      -1.794433805000000     -2.772908690000000      1.204789095000000
C      -0.051424505000000     -2.132884090000000      2.793882995000000
C      -2.589147105000000     -1.722582790000000      1.632971495000000
C      -3.316070505000000     -0.935063590000000      0.676526795000000
C      -1.695191905000000     -3.069258090000000     -0.197656405000000
C      -2.395490105000000     -2.309685290000000     -1.118986205000000
C      -3.221418205000000     -1.223183490000000     -0.673958105000000
C       2.175823395000000     -2.094626290000000      1.792252895000000
C       1.711861895000000     -2.974968090000000      0.755719795000000
C       1.313065595000000     -1.682941590000000      2.794389195000000
C       0.395902395000000     -3.405139490000000      0.755763795000000
C      -0.340821905000000     -3.459188290000000     -0.474561005000000
C       2.336005695000000     -2.581449890000000     -0.476105005000000
C       1.626375695000000     -2.635734890000000     -1.664230905000000
C       0.261135195000000     -3.082127090000000     -1.662261805000000
C      -2.210084405000000     -0.586863590000000     -2.667030005000000
C      -1.772697005000000     -1.917896890000000     -2.353046605000000
C      -0.467072305000000     -2.295050890000000     -2.617510505000000
C      -1.328350005000000      0.315768310000000     -3.236237505000000
C      -2.175988205000000      2.094538310000000     -1.792329405000000
C      -3.090966305000000      1.158347210000000     -1.201574905000000
C      -3.107609005000000     -0.157845290000000     -1.630162705000000
C      -1.313136505000000      1.682829210000000     -2.794363905000000
C       0.500322395000000      2.979963710000000     -1.794020305000000
C      -0.396114805000000      3.405281710000000     -0.755727205000000
C      -1.712062905000000      2.974912210000000     -0.755798805000000
C       0.051282395000000      2.132947810000000     -2.793745005000000
C       2.125862995000000      0.846080910000000     -2.670053405000000
C       2.589185295000000      1.722774210000000     -1.632956205000000
C       1.794300995000000      2.773068410000000     -1.204826205000000
C       0.878132295000000      1.046351410000000     -3.236531305000000
C       0.448245195000000     -1.359106090000000     -3.208051005000000
C       1.741694795000000     -1.567955690000000     -2.619771405000000
C       2.562172395000000     -0.485352890000000     -2.353202605000000
C       0.025790395000000     -0.076356690000000     -3.508444605000000
