64
Lattice="11.28 0.0 0.0 0.0 11.28 0.0 0.0 0.0 11.28" Properties=species:S:1:pos:R:3 pbc="T T T"
Na      -5.64000000      -5.64000000      -5.64000000
Cl      -2.82000000      -5.64000000      -5.64000000
Na      -5.64000000      -2.82000000      -2.82000000
Cl      -2.82000000      -2.82000000      -2.82000000
Na      -2.82000000      -5.64000000      -2.82000000
Cl      -5.64000000      -5.64000000      -2.82000000
Na      -2.82000000      -2.82000000      -5.64000000
Cl      -5.64000000      -2.82000000      -5.64000000
Na      -5.64000000      -5.64000000       0.00000000
Cl      -2.82000000      -5.64000000       0.00000000
Na      -5.64000000      -2.82000000       2.82000000
Cl      -2.82000000      -2.82000000       2.82000000
Na      -2.82000000      -5.64000000       2.82000000
Cl      -5.64000000      -5.64000000       2.82000000
Na      -2.82000000      -2.82000000       0.00000000
Cl      -5.64000000      -2.82000000       0.00000000
Na      -5.64000000       0.00000000      -5.64000000
Cl      -2.82000000       0.00000000      -5.64000000
Na      -5.64000000       2.82000000      -2.82000000
Cl      -2.82000000       2.82000000      -2.82000000
Na      -2.82000000       0.00000000      -2.82000000
Cl      -5.64000000       0.00000000      -2.82000000
Na      -2.82000000       2.82000000      -5.64000000
Cl      -5.64000000       2.82000000      -5.64000000
Na      -5.64000000       0.00000000       0.00000000
Cl      -2.82000000       0.00000000       0.00000000
Na      -5.64000000       2.82000000       2.82000000
Cl      -2.82000000       2.82000000       2.82000000
Na      -2.82000000       0.00000000       2.82000000
Cl      -5.64000000       0.00000000       2.82000000
Na      -2.82000000       2.82000000       0.00000000
Cl      -5.64000000       2.82000000       0.00000000
Na       0.00000000      -5.64000000      -5.64000000
Cl       2.82000000      -5.64000000      -5.64000000
Na       0.00000000      -2.82000000      -2.82000000
Cl       2.82000000      -2.82000000      -2.82000000
Na       2.82000000      -5.64000000      -2.82000000
Cl       0.00000000      -5.64000000      -2.82000000
Na       2.82000000      -2.82000000      -5.64000000
Cl       0.00000000      -2.82000000      -5.64000000
Na       0.00000000      -5.64000000       0.00000000
Cl       2.82000000      -5.64000000       0.00000000
Na       0.00000000      -2.82000000       2.82000000
Cl       2.82000000      -2.82000000       2.82000000
Na       2.82000000      -5.64000000       2.82000000
Cl       0.00000000      -5.64000000       2.82000000
Na       2.82000000      -2.82000000       0.00000000
Cl       0.00000000      -2.82000000       0.00000000
Na       0.00000000       0.00000000      -5.64000000
Cl       2.82000000       0.00000000      -5.64000000
Na       0.00000000       2.82000000      -2.82000000
Cl       2.82000000       2.82000000      -2.82000000
Na       2.82000000       0.00000000      -2.82000000
Cl       0.00000000       0.00000000      -2.82000000
Na       2.82000000       2.82000000      -5.64000000
Cl       0.00000000       2.82000000      -5.64000000
Na       0.00000000       0.00000000       0.00000000
Cl       2.82000000       0.00000000       0.00000000
Na       0.00000000       2.82000000       2.82000000
Cl       2.82000000       2.82000000       2.82000000
Na       2.82000000       0.00000000       2.82000000
Cl       0.00000000       0.00000000       2.82000000
Na       2.82000000       2.82000000       0.00000000
Cl       0.00000000       2.82000000       0.00000000
