40
Lattice="7.81 0 0 0 7.81 0 0 0 7.81" Properties=species:S:1:pos:R:3 pbc="T T T"
Sr   -3.9050   -3.9050   -3.9050
Ti   -1.9525   -1.9525   -1.9525
O    -1.9525   -1.9525   -3.9050
O    -1.9525   -3.9050   -1.9525
O    -3.9050   -1.9525   -1.9525
Sr   -3.9050   -3.9050    0.0000
Ti   -1.9525   -1.9525    1.9525
O    -1.9525   -1.9525    0.0000
O    -1.9525   -3.9050    1.9525
O    -3.9050   -1.9525    1.9525
Sr   -3.9050    0.0000   -3.9050
Ti   -1.9525    1.9525   -1.9525
O    -1.9525    1.9525   -3.9050
O    -1.9525    0.0000   -1.9525
O    -3.9050    1.9525   -1.9525
Sr   -3.9050    0.0000    0.0000
Ti   -1.9525    1.9525    1.9525
O    -1.9525    1.9525    0.0000
O    -1.9525    0.0000    1.9525
O    -3.9050    1.9525    1.9525
Sr    0.0000   -3.9050   -3.9050
Ti    1.9525   -1.9525   -1.9525
O     1.9525   -1.9525   -3.9050
O     1.9525   -3.9050   -1.9525
O     0.0000   -1.9525   -1.9525
Sr    0.0000   -3.9050    0.0000
Ti    1.9525   -1.9525    1.9525
O     1.9525   -1.9525    0.0000
O     1.9525   -3.9050    1.9525
O     0.0000   -1.9525    1.9525
Sr    0.0000    0.0000   -3.9050
Ti    1.9525    1.9525   -1.9525
O     1.9525    1.9525   -3.9050
O     1.9525    0.0000   -1.9525
O     0.0000    1.9525   -1.9525
Sr    0.0000    0.0000    0.0000
Ti    1.9525    1.9525    1.9525
O     1.9525    1.9525    0.0000
O     1.9525    0.0000    1.9525
O     0.0000    1.9525    1.9525
