81
Lattice="12.0 0.0 0.0 0.0 12.0 0.0 0.0 0.0 12.0" Properties=species:S:1:pos:R:3 pbc="T T T"
O       -3.70000000      -3.70000000      -3.70000000
H       -3.98028710      -4.54650085      -3.32185498
H       -2.73796188      -3.78380309      -3.77468528
O       -3.70000000      -3.70000000       0.00000000
H       -3.94732548      -2.87676140       0.44634797
H       -3.52161083      -3.42752100      -0.91216813
O       -3.70000000      -3.70000000       3.70000000
H       -3.85014763      -4.28174533       4.45970142
H       -2.78175256      -3.87660516       3.44751147
O       -3.70000000       0.00000000      -3.70000000
H       -2.79970182      -0.35635079      -3.72440300
H       -3.59814880       0.86520516      -3.27672165
O       -3.70000000       0.00000000       0.00000000
H       -4.62977382      -0.20786103       0.17444953
H       -3.25494199      -0.19593324       0.83764654
O       -3.70000000       0.00000000       3.70000000
H       -4.28041361       0.58033536       4.21424616
H       -2.97671043      -0.20794269       4.30969684
O       -3.70000000       3.70000000      -3.70000000
H       -3.17788376       3.84855098      -2.89784950
H       -3.04759137       3.40754878      -4.35341675
O       -3.70000000       3.70000000       0.00000000
H       -3.53963435       4.60315456       0.31098697
H       -4.19137825       3.28634007       0.72494901
O       -3.70000000       3.70000000       3.70000000
H       -3.08354852       3.18786203       4.24389380
H       -3.17476042       3.95445595       2.92702280
O        0.00000000      -3.70000000      -3.70000000
H        0.93879861      -3.46901250      -3.75848200
H       -0.34618105      -3.10338867      -3.02005015
O        0.00000000      -3.70000000       0.00000000
H       -0.27945228      -2.83773420       0.34135363
H        0.93339771      -3.57177988      -0.22460302
O        0.00000000      -3.70000000       3.70000000
H        0.08209585      -3.34013244       4.59547407
H       -0.49454645      -4.52367160       3.82291093
O        0.00000000       0.00000000      -3.70000000
H       -0.95966450      -0.05805943      -3.81743655
H        0.35820145      -0.28587304      -4.55327986
O        0.00000000       0.00000000       0.00000000
H       -0.78900452       0.55941276      -0.05145317
H        0.04572509      -0.42130683      -0.87093511
O        0.00000000       0.00000000       3.70000000
H       -0.89539656      -0.32069216       3.51686143
H       -0.11038736       0.57548380       4.47120116
O        0.00000000       3.70000000      -3.70000000
H        0.59846140       4.42177029      -3.94291932
H       -0.26006556       3.31514958      -4.54992603
O        0.00000000       3.70000000       0.00000000
H        0.55276072       3.91487569       0.76576904
H        0.44444358       4.13878554      -0.74030761
O        0.00000000       3.70000000       3.70000000
H        0.78805575       3.39487399       4.17326995
H       -0.21984539       2.96293635       3.11133763
O        3.70000000      -3.70000000      -3.70000000
H        4.21834725      -4.04868110      -4.44017283
H        2.86305156      -4.18479011      -3.75112782
O        3.70000000      -3.70000000       0.00000000
H        4.17054222      -2.98631608      -0.45537180
H        4.31550557      -3.98181855       0.69271162
O        3.70000000      -3.70000000       3.70000000
H        4.27277475      -4.46992959       3.56863904
H        2.90311115      -4.06793492       4.10952442
O        3.70000000       0.00000000      -3.70000000
H        3.16874546       0.20713177      -4.48293246
H        3.51427683      -0.93556012      -3.53161842
O        3.70000000       0.00000000       0.00000000
H        3.92285015       0.78022767       0.52886745
H        2.73180474      -0.02328164       0.01319440
O        3.70000000       0.00000000       3.70000000
H        3.36467463      -0.42234151       4.50455126
H        3.64934957      -0.69799220       3.03040339
O        3.70000000       3.70000000      -3.70000000
H        2.92575915       4.25785795      -3.53427792
H        4.23454493       4.21893089      -4.31894317
O        3.70000000       3.70000000       0.00000000
H        3.06676311       2.99249878      -0.19123615
H        3.29125443       4.18958619       0.72893800
O        3.70000000       3.70000000       3.70000000
H        3.01336699       4.25857831       4.09324748
H        3.20520237       2.98051229       3.28091656
